% demand
num_movements = 28;
loading_factor = [1100, 1900, 850, 1600, 1550, 1550, 1200, 1500, 1200, 1150, 850, 1100, 1250, 1850, 800, 850, 1450, 1950, 1800, 1550, 1300, 1000, 950, 1000, 1000, 1900, 1250, 900];
pickup_time = [0, 0, 0, 0, 0, 1, 1, 1, 1, 3, 3, 3, 3, 3, 3, 4, 4, 4, 4, 6, 7, 7, 8, 8, 8, 8, 8, 8];
delivery_time = [1, 1, 1, 1, 3, 3, 3, 3, 3, 4, 7, 4, 4, 4, 4, 7, 6, 7, 7, 7, 8, 8, 12, 11, 11, 12, 12, 11];

% transporter definition
total_capacity = 7000;
num_decks = 3;
capacity = [3000, 1000, 3000];

% ways out of decks
num_ways_out = 1;
paths_out = array3d(decks, ways_out, decks, [
% ways out of deck d1
2, 3, 0, 

% ways out of deck d2
3, 0, 0, 

% ways out of deck d3
0, 0, 0,	

]);

